c description: Graph pigeonhole principle formula on fast_gnp_random_graph(10,25,0.9)
c generator: CNFgen (0.9.0)
c copyright: (C) 2012-2020 Massimo Lauria <massimo.lauria@uniroma1.it>
c url: https://massimolauria.net/cnfgen
c
p cnf 229 953
1 2 3 4 5 6 7 8 9 10 11 12 13 14 15 16 17 18 19 20 21 0
22 23 24 25 26 27 28 29 30 31 32 33 34 35 36 37 38 39 40 41 42 43 44 45 46 0
47 48 49 50 51 52 53 54 55 56 57 58 59 60 61 62 63 64 65 66 67 68 69 0
70 71 72 73 74 75 76 77 78 79 80 81 82 83 84 85 86 87 88 89 90 91 92 0
93 94 95 96 97 98 99 100 101 102 103 104 105 106 107 108 109 110 111 112 113 114 115 116 0
117 118 119 120 121 122 123 124 125 126 127 128 129 130 131 132 133 134 135 136 137 0
138 139 140 141 142 143 144 145 146 147 148 149 150 151 152 153 154 155 156 157 158 159 160 161 0
162 163 164 165 166 167 168 169 170 171 172 173 174 175 176 177 178 179 180 181 182 183 184 185 0
186 187 188 189 190 191 192 193 194 195 196 197 198 199 200 201 202 203 204 205 206 207 208 0
209 210 211 212 213 214 215 216 217 218 219 220 221 222 223 224 225 226 227 228 229 0
-1 -22 0
-1 -47 0
-1 -70 0
-1 -93 0
-1 -117 0
-1 -138 0
-1 -162 0
-1 -186 0
-22 -47 0
-22 -70 0
-22 -93 0
-22 -117 0
-22 -138 0
-22 -162 0
-22 -186 0
-47 -70 0
-47 -93 0
-47 -117 0
-47 -138 0
-47 -162 0
-47 -186 0
-70 -93 0
-70 -117 0
-70 -138 0
-70 -162 0
-70 -186 0
-93 -117 0
-93 -138 0
-93 -162 0
-93 -186 0
-117 -138 0
-117 -162 0
-117 -186 0
-138 -162 0
-138 -186 0
-162 -186 0
-2 -23 0
-2 -48 0
-2 -71 0
-2 -94 0
-2 -118 0
-2 -139 0
-2 -163 0
-2 -187 0
-2 -209 0
-23 -48 0
-23 -71 0
-23 -94 0
-23 -118 0
-23 -139 0
-23 -163 0
-23 -187 0
-23 -209 0
-48 -71 0
-48 -94 0
-48 -118 0
-48 -139 0
-48 -163 0
-48 -187 0
-48 -209 0
-71 -94 0
-71 -118 0
-71 -139 0
-71 -163 0
-71 -187 0
-71 -209 0
-94 -118 0
-94 -139 0
-94 -163 0
-94 -187 0
-94 -209 0
-118 -139 0
-118 -163 0
-118 -187 0
-118 -209 0
-139 -163 0
-139 -187 0
-139 -209 0
-163 -187 0
-163 -209 0
-187 -209 0
-3 -24 0
-3 -49 0
-3 -72 0
-3 -95 0
-3 -119 0
-3 -140 0
-3 -164 0
-3 -188 0
-3 -210 0
-24 -49 0
-24 -72 0
-24 -95 0
-24 -119 0
-24 -140 0
-24 -164 0
-24 -188 0
-24 -210 0
-49 -72 0
-49 -95 0
-49 -119 0
-49 -140 0
-49 -164 0
-49 -188 0
-49 -210 0
-72 -95 0
-72 -119 0
-72 -140 0
-72 -164 0
-72 -188 0
-72 -210 0
-95 -119 0
-95 -140 0
-95 -164 0
-95 -188 0
-95 -210 0
-119 -140 0
-119 -164 0
-119 -188 0
-119 -210 0
-140 -164 0
-140 -188 0
-140 -210 0
-164 -188 0
-164 -210 0
-188 -210 0
-4 -25 0
-4 -50 0
-4 -73 0
-4 -96 0
-4 -120 0
-4 -141 0
-4 -165 0
-4 -189 0
-25 -50 0
-25 -73 0
-25 -96 0
-25 -120 0
-25 -141 0
-25 -165 0
-25 -189 0
-50 -73 0
-50 -96 0
-50 -120 0
-50 -141 0
-50 -165 0
-50 -189 0
-73 -96 0
-73 -120 0
-73 -141 0
-73 -165 0
-73 -189 0
-96 -120 0
-96 -141 0
-96 -165 0
-96 -189 0
-120 -141 0
-120 -165 0
-120 -189 0
-141 -165 0
-141 -189 0
-165 -189 0
-5 -26 0
-5 -51 0
-5 -97 0
-5 -121 0
-5 -142 0
-5 -166 0
-5 -211 0
-26 -51 0
-26 -97 0
-26 -121 0
-26 -142 0
-26 -166 0
-26 -211 0
-51 -97 0
-51 -121 0
-51 -142 0
-51 -166 0
-51 -211 0
-97 -121 0
-97 -142 0
-97 -166 0
-97 -211 0
-121 -142 0
-121 -166 0
-121 -211 0
-142 -166 0
-142 -211 0
-166 -211 0
-6 -27 0
-6 -52 0
-6 -74 0
-6 -98 0
-6 -122 0
-6 -143 0
-6 -167 0
-6 -190 0
-27 -52 0
-27 -74 0
-27 -98 0
-27 -122 0
-27 -143 0
-27 -167 0
-27 -190 0
-52 -74 0
-52 -98 0
-52 -122 0
-52 -143 0
-52 -167 0
-52 -190 0
-74 -98 0
-74 -122 0
-74 -143 0
-74 -167 0
-74 -190 0
-98 -122 0
-98 -143 0
-98 -167 0
-98 -190 0
-122 -143 0
-122 -167 0
-122 -190 0
-143 -167 0
-143 -190 0
-167 -190 0
-7 -28 0
-7 -53 0
-7 -75 0
-7 -99 0
-7 -123 0
-7 -144 0
-7 -168 0
-7 -191 0
-7 -212 0
-28 -53 0
-28 -75 0
-28 -99 0
-28 -123 0
-28 -144 0
-28 -168 0
-28 -191 0
-28 -212 0
-53 -75 0
-53 -99 0
-53 -123 0
-53 -144 0
-53 -168 0
-53 -191 0
-53 -212 0
-75 -99 0
-75 -123 0
-75 -144 0
-75 -168 0
-75 -191 0
-75 -212 0
-99 -123 0
-99 -144 0
-99 -168 0
-99 -191 0
-99 -212 0
-123 -144 0
-123 -168 0
-123 -191 0
-123 -212 0
-144 -168 0
-144 -191 0
-144 -212 0
-168 -191 0
-168 -212 0
-191 -212 0
-8 -29 0
-8 -54 0
-8 -76 0
-8 -100 0
-8 -124 0
-8 -145 0
-8 -169 0
-8 -192 0
-8 -213 0
-29 -54 0
-29 -76 0
-29 -100 0
-29 -124 0
-29 -145 0
-29 -169 0
-29 -192 0
-29 -213 0
-54 -76 0
-54 -100 0
-54 -124 0
-54 -145 0
-54 -169 0
-54 -192 0
-54 -213 0
-76 -100 0
-76 -124 0
-76 -145 0
-76 -169 0
-76 -192 0
-76 -213 0
-100 -124 0
-100 -145 0
-100 -169 0
-100 -192 0
-100 -213 0
-124 -145 0
-124 -169 0
-124 -192 0
-124 -213 0
-145 -169 0
-145 -192 0
-145 -213 0
-169 -192 0
-169 -213 0
-192 -213 0
-9 -30 0
-9 -55 0
-9 -77 0
-9 -101 0
-9 -125 0
-9 -146 0
-9 -170 0
-9 -193 0
-9 -214 0
-30 -55 0
-30 -77 0
-30 -101 0
-30 -125 0
-30 -146 0
-30 -170 0
-30 -193 0
-30 -214 0
-55 -77 0
-55 -101 0
-55 -125 0
-55 -146 0
-55 -170 0
-55 -193 0
-55 -214 0
-77 -101 0
-77 -125 0
-77 -146 0
-77 -170 0
-77 -193 0
-77 -214 0
-101 -125 0
-101 -146 0
-101 -170 0
-101 -193 0
-101 -214 0
-125 -146 0
-125 -170 0
-125 -193 0
-125 -214 0
-146 -170 0
-146 -193 0
-146 -214 0
-170 -193 0
-170 -214 0
-193 -214 0
-10 -31 0
-10 -56 0
-10 -78 0
-10 -102 0
-10 -126 0
-10 -147 0
-10 -171 0
-10 -194 0
-10 -215 0
-31 -56 0
-31 -78 0
-31 -102 0
-31 -126 0
-31 -147 0
-31 -171 0
-31 -194 0
-31 -215 0
-56 -78 0
-56 -102 0
-56 -126 0
-56 -147 0
-56 -171 0
-56 -194 0
-56 -215 0
-78 -102 0
-78 -126 0
-78 -147 0
-78 -171 0
-78 -194 0
-78 -215 0
-102 -126 0
-102 -147 0
-102 -171 0
-102 -194 0
-102 -215 0
-126 -147 0
-126 -171 0
-126 -194 0
-126 -215 0
-147 -171 0
-147 -194 0
-147 -215 0
-171 -194 0
-171 -215 0
-194 -215 0
-11 -32 0
-11 -57 0
-11 -79 0
-11 -103 0
-11 -127 0
-11 -148 0
-11 -172 0
-11 -195 0
-11 -216 0
-32 -57 0
-32 -79 0
-32 -103 0
-32 -127 0
-32 -148 0
-32 -172 0
-32 -195 0
-32 -216 0
-57 -79 0
-57 -103 0
-57 -127 0
-57 -148 0
-57 -172 0
-57 -195 0
-57 -216 0
-79 -103 0
-79 -127 0
-79 -148 0
-79 -172 0
-79 -195 0
-79 -216 0
-103 -127 0
-103 -148 0
-103 -172 0
-103 -195 0
-103 -216 0
-127 -148 0
-127 -172 0
-127 -195 0
-127 -216 0
-148 -172 0
-148 -195 0
-148 -216 0
-172 -195 0
-172 -216 0
-195 -216 0
-12 -33 0
-12 -58 0
-12 -80 0
-12 -104 0
-12 -149 0
-12 -173 0
-12 -196 0
-33 -58 0
-33 -80 0
-33 -104 0
-33 -149 0
-33 -173 0
-33 -196 0
-58 -80 0
-58 -104 0
-58 -149 0
-58 -173 0
-58 -196 0
-80 -104 0
-80 -149 0
-80 -173 0
-80 -196 0
-104 -149 0
-104 -173 0
-104 -196 0
-149 -173 0
-149 -196 0
-173 -196 0
-13 -34 0
-13 -59 0
-13 -81 0
-13 -105 0
-13 -128 0
-13 -150 0
-13 -174 0
-13 -197 0
-13 -217 0
-34 -59 0
-34 -81 0
-34 -105 0
-34 -128 0
-34 -150 0
-34 -174 0
-34 -197 0
-34 -217 0
-59 -81 0
-59 -105 0
-59 -128 0
-59 -150 0
-59 -174 0
-59 -197 0
-59 -217 0
-81 -105 0
-81 -128 0
-81 -150 0
-81 -174 0
-81 -197 0
-81 -217 0
-105 -128 0
-105 -150 0
-105 -174 0
-105 -197 0
-105 -217 0
-128 -150 0
-128 -174 0
-128 -197 0
-128 -217 0
-150 -174 0
-150 -197 0
-150 -217 0
-174 -197 0
-174 -217 0
-197 -217 0
-14 -35 0
-14 -60 0
-14 -82 0
-14 -106 0
-14 -129 0
-14 -151 0
-14 -175 0
-14 -198 0
-14 -218 0
-35 -60 0
-35 -82 0
-35 -106 0
-35 -129 0
-35 -151 0
-35 -175 0
-35 -198 0
-35 -218 0
-60 -82 0
-60 -106 0
-60 -129 0
-60 -151 0
-60 -175 0
-60 -198 0
-60 -218 0
-82 -106 0
-82 -129 0
-82 -151 0
-82 -175 0
-82 -198 0
-82 -218 0
-106 -129 0
-106 -151 0
-106 -175 0
-106 -198 0
-106 -218 0
-129 -151 0
-129 -175 0
-129 -198 0
-129 -218 0
-151 -175 0
-151 -198 0
-151 -218 0
-175 -198 0
-175 -218 0
-198 -218 0
-36 -61 0
-36 -83 0
-36 -107 0
-36 -130 0
-36 -176 0
-36 -199 0
-36 -219 0
-61 -83 0
-61 -107 0
-61 -130 0
-61 -176 0
-61 -199 0
-61 -219 0
-83 -107 0
-83 -130 0
-83 -176 0
-83 -199 0
-83 -219 0
-107 -130 0
-107 -176 0
-107 -199 0
-107 -219 0
-130 -176 0
-130 -199 0
-130 -219 0
-176 -199 0
-176 -219 0
-199 -219 0
-15 -37 0
-15 -62 0
-15 -84 0
-15 -131 0
-15 -152 0
-15 -200 0
-15 -220 0
-37 -62 0
-37 -84 0
-37 -131 0
-37 -152 0
-37 -200 0
-37 -220 0
-62 -84 0
-62 -131 0
-62 -152 0
-62 -200 0
-62 -220 0
-84 -131 0
-84 -152 0
-84 -200 0
-84 -220 0
-131 -152 0
-131 -200 0
-131 -220 0
-152 -200 0
-152 -220 0
-200 -220 0
-38 -63 0
-38 -85 0
-38 -108 0
-38 -132 0
-38 -153 0
-38 -177 0
-38 -201 0
-38 -221 0
-63 -85 0
-63 -108 0
-63 -132 0
-63 -153 0
-63 -177 0
-63 -201 0
-63 -221 0
-85 -108 0
-85 -132 0
-85 -153 0
-85 -177 0
-85 -201 0
-85 -221 0
-108 -132 0
-108 -153 0
-108 -177 0
-108 -201 0
-108 -221 0
-132 -153 0
-132 -177 0
-132 -201 0
-132 -221 0
-153 -177 0
-153 -201 0
-153 -221 0
-177 -201 0
-177 -221 0
-201 -221 0
-16 -39 0
-16 -64 0
-16 -86 0
-16 -109 0
-16 -133 0
-16 -154 0
-16 -178 0
-16 -202 0
-16 -222 0
-39 -64 0
-39 -86 0
-39 -109 0
-39 -133 0
-39 -154 0
-39 -178 0
-39 -202 0
-39 -222 0
-64 -86 0
-64 -109 0
-64 -133 0
-64 -154 0
-64 -178 0
-64 -202 0
-64 -222 0
-86 -109 0
-86 -133 0
-86 -154 0
-86 -178 0
-86 -202 0
-86 -222 0
-109 -133 0
-109 -154 0
-109 -178 0
-109 -202 0
-109 -222 0
-133 -154 0
-133 -178 0
-133 -202 0
-133 -222 0
-154 -178 0
-154 -202 0
-154 -222 0
-178 -202 0
-178 -222 0
-202 -222 0
-40 -65 0
-40 -87 0
-40 -110 0
-40 -134 0
-40 -155 0
-40 -179 0
-40 -203 0
-40 -223 0
-65 -87 0
-65 -110 0
-65 -134 0
-65 -155 0
-65 -179 0
-65 -203 0
-65 -223 0
-87 -110 0
-87 -134 0
-87 -155 0
-87 -179 0
-87 -203 0
-87 -223 0
-110 -134 0
-110 -155 0
-110 -179 0
-110 -203 0
-110 -223 0
-134 -155 0
-134 -179 0
-134 -203 0
-134 -223 0
-155 -179 0
-155 -203 0
-155 -223 0
-179 -203 0
-179 -223 0
-203 -223 0
-17 -41 0
-17 -66 0
-17 -88 0
-17 -111 0
-17 -156 0
-17 -180 0
-17 -204 0
-17 -224 0
-41 -66 0
-41 -88 0
-41 -111 0
-41 -156 0
-41 -180 0
-41 -204 0
-41 -224 0
-66 -88 0
-66 -111 0
-66 -156 0
-66 -180 0
-66 -204 0
-66 -224 0
-88 -111 0
-88 -156 0
-88 -180 0
-88 -204 0
-88 -224 0
-111 -156 0
-111 -180 0
-111 -204 0
-111 -224 0
-156 -180 0
-156 -204 0
-156 -224 0
-180 -204 0
-180 -224 0
-204 -224 0
-18 -42 0
-18 -67 0
-18 -89 0
-18 -112 0
-18 -135 0
-18 -157 0
-18 -181 0
-18 -205 0
-18 -225 0
-42 -67 0
-42 -89 0
-42 -112 0
-42 -135 0
-42 -157 0
-42 -181 0
-42 -205 0
-42 -225 0
-67 -89 0
-67 -112 0
-67 -135 0
-67 -157 0
-67 -181 0
-67 -205 0
-67 -225 0
-89 -112 0
-89 -135 0
-89 -157 0
-89 -181 0
-89 -205 0
-89 -225 0
-112 -135 0
-112 -157 0
-112 -181 0
-112 -205 0
-112 -225 0
-135 -157 0
-135 -181 0
-135 -205 0
-135 -225 0
-157 -181 0
-157 -205 0
-157 -225 0
-181 -205 0
-181 -225 0
-205 -225 0
-19 -43 0
-19 -90 0
-19 -113 0
-19 -158 0
-19 -182 0
-19 -206 0
-19 -226 0
-43 -90 0
-43 -113 0
-43 -158 0
-43 -182 0
-43 -206 0
-43 -226 0
-90 -113 0
-90 -158 0
-90 -182 0
-90 -206 0
-90 -226 0
-113 -158 0
-113 -182 0
-113 -206 0
-113 -226 0
-158 -182 0
-158 -206 0
-158 -226 0
-182 -206 0
-182 -226 0
-206 -226 0
-20 -44 0
-20 -91 0
-20 -114 0
-20 -136 0
-20 -159 0
-20 -183 0
-20 -207 0
-20 -227 0
-44 -91 0
-44 -114 0
-44 -136 0
-44 -159 0
-44 -183 0
-44 -207 0
-44 -227 0
-91 -114 0
-91 -136 0
-91 -159 0
-91 -183 0
-91 -207 0
-91 -227 0
-114 -136 0
-114 -159 0
-114 -183 0
-114 -207 0
-114 -227 0
-136 -159 0
-136 -183 0
-136 -207 0
-136 -227 0
-159 -183 0
-159 -207 0
-159 -227 0
-183 -207 0
-183 -227 0
-207 -227 0
-21 -45 0
-21 -68 0
-21 -115 0
-21 -160 0
-21 -184 0
-21 -208 0
-21 -228 0
-45 -68 0
-45 -115 0
-45 -160 0
-45 -184 0
-45 -208 0
-45 -228 0
-68 -115 0
-68 -160 0
-68 -184 0
-68 -208 0
-68 -228 0
-115 -160 0
-115 -184 0
-115 -208 0
-115 -228 0
-160 -184 0
-160 -208 0
-160 -228 0
-184 -208 0
-184 -228 0
-208 -228 0
-46 -69 0
-46 -92 0
-46 -116 0
-46 -137 0
-46 -161 0
-46 -185 0
-46 -229 0
-69 -92 0
-69 -116 0
-69 -137 0
-69 -161 0
-69 -185 0
-69 -229 0
-92 -116 0
-92 -137 0
-92 -161 0
-92 -185 0
-92 -229 0
-116 -137 0
-116 -161 0
-116 -185 0
-116 -229 0
-137 -161 0
-137 -185 0
-137 -229 0
-161 -185 0
-161 -229 0
-185 -229 0